# Objective value = 0
err 0
f-1 1.7008010400000001e+03
info-1 0
s-1 8.3373096000000010e+02
GPS 0
comm 0
SYS 0
f-6 0
info-3 0
s-4 1.4861751012000000e+03
s-3 2.7695579999999995e+02
f-5 0
s-2 2.0043740887300000e+03
s-6 0
f-3 0
